(set-option :produce-interpolants true)
(set-option :certify-interpolants true)
(set-logic QF_UF)
(declare-fun x () Bool)
(assert (! false :named A))
(assert (! x :named B))
(check-sat)
(get-interpolants A B)
